NAME: test134
TYPE: TSP
DIMENSION: 20
EDGE_WEIGHT_TYPE: EUC_2D
NODE_COORD_SECTION
1 49.41557754630491 30.45895992677642
2 17.58216526692794 96.2466015599846
3 2.091487459866115 30.23939931259585
4 1.7674956522298002 34.45722442742108
5 93.40437480894703 28.21783233412962
6 60.21783457145422 5.184505566041175
7 78.94564425991187 73.42265066096843
8 75.90878329203574 43.19058308397082
9 15.592219569389599 77.31863226590927
10 49.358265350626375 73.6994100779949
11 84.21527624516361 73.10285096695479
12 6.046362000507111 80.20740572645441
13 10.327214998772194 13.302020493977206
14 66.4723178137214 51.42158666735598
15 87.17744972000065 63.98364575747615
16 7.867407651694869 89.32547819356213
17 86.10794400988115 80.53318838422315
18 59.92517450199601 28.202346474309902
19 87.58754804491043 22.30551208062811
20 29.749436875778656 90.3205139183956
EOF
